NAME lp_typeD_4537
OBJSENSE MAX
ROWS
 N  OBJ
 L  c0      
 L  c1      
 G  c2      
 G  c3      
 L  c_key_upper
 G  c_key_lower
 G  _chain_constr_1
 G  _chain_constr_2
 G  _chain_constr_3
 G  _chain_cycle
COLUMNS
    x0        OBJ       1.4101453564050488e+00
    x0        c0        1.2930203781374381e+00
    x0        c1        1.6606816429116062e+00
    x0        c2        1.1034076236323029e+00
    x0        c3        5.6157377726818025e-01
    x0        c_key_upper  1.9458022863948550e+00
    x0        c_key_lower  1.9458022863948550e+00
    x1        OBJ       1.1521343566056532e+00
    x1        c0        1.1964639525218477e+00
    x1        c1        5.6519907226735078e-01
    x1        c2        1.8581840438456445e+00
    x1        c3        1.3258853483552981e+00
    x1        c_key_upper  1.0979905594756063e+00
    x1        c_key_lower  1.0979905594756063e+00
    x2        OBJ       1.1024954699852541e+00
    x2        c0        0.941434197392969
    x2        c1        0.693856925115669
    x2        c2        9.7689155140235240e-01
    x2        c3        1.7751111224553313e+00
    x2        c_key_upper  1.1951069828811696e+00
    x2        c_key_lower  1.1951069828811696e+00
    x3        OBJ       9.4192986507568432e-01
    x3        c0        1.9608017664165895e+00
    x3        c1        1.9911811593317617e+00
    x3        c2        1.0974159790908384e+00
    x3        c3        1.6586069612574996e+00
    x3        c_key_upper  1.6448364608628783e+00
    x3        c_key_lower  1.6448364608628783e+00
    x4        OBJ       8.5902200394596384e-01
    x4        c0        1.8972117867866154e+00
    x4        c1        0.608932303728263
    x4        c2        1.8323274836981882e+00
    x4        c3        7.5586697986066520e-01
    x4        c_key_upper  1.0111342815250492e+00
    x4        c_key_lower  1.0111342815250492e+00
    x5        OBJ       1.1261734293158379e+00
    x5        c0        1.55183611315765
    x5        c1        1.1487988317376265e+00
    x5        c2        1.6158908878683989e+00
    x5        c3        1.8388531486476563e+00
    x5        c_key_upper  1.8921559847381073e+00
    x5        c_key_lower  1.8921559847381073e+00
    x6        OBJ       1.1834245562832493e+00
    x6        c0        1.3587142082272856e+00
    x6        c1        1.8858796354424756e+00
    x6        c2        5.4932922238029191e-01
    x6        c3        1.6542161843608061e+00
    x6        c_key_upper  1.4849742797712961e+00
    x6        c_key_lower  1.4849742797712961e+00
    x7        OBJ       5.5350099736030711e-01
    x7        c0        7.7088243217035468e-01
    x7        c1        1.6209317286211022e+00
    x7        c2        9.1320589649200268e-01
    x7        c3        1.8567202346122729e+00
    x7        c_key_upper  1.7410182512690797e+00
    x7        c_key_lower  1.7410182512690797e+00
    _chain_var_0  _chain_constr_1  -1
    _chain_var_0  _chain_cycle  1
    _chain_var_1  _chain_constr_1  1
    _chain_var_1  _chain_constr_2  -1
    _chain_var_2  _chain_constr_2  1
    _chain_var_2  _chain_constr_3  -1
    _chain_var_3  _chain_constr_3  1
    _chain_var_3  _chain_cycle  -1
RHS
    RHS1      c0        5.1133738604288361e+01
    RHS1      c1        4.6140029964447272e+01
    RHS1      c2        1.2016613561194397e+01
    RHS1      c3        1.7122805642656697e+01
    RHS1      c_key_upper  6.0065095434590205e+01
    RHS1      c_key_lower  3.0032547717295103e+01
    RHS1      _chain_constr_1  10
    RHS1      _chain_constr_2  10
    RHS1      _chain_constr_3  10
    RHS1      _chain_cycle  10
BOUNDS
 UP BND1      x0        10
 UP BND1      x1        10
 UP BND1      x2        10
 UP BND1      x3        10
 UP BND1      x4        10
 UP BND1      x5        10
 UP BND1      x6        10
 UP BND1      x7        10
 UP BND1      _chain_var_0  100
 UP BND1      _chain_var_1  100
 UP BND1      _chain_var_2  100
 UP BND1      _chain_var_3  100
ENDATA
